SCIP version 5.0.0 [precision: 8 byte] [memory: block] [mode: optimized] [LP solver: NONE] [GitHash: 3bbd232]
Copyright (C) 2002-2017 Konrad-Zuse-Zentrum fuer Informationstechnik Berlin (ZIB)

External codes: 
  Readline EditLine w  GNU library for command line editing (gnu.org/s/readline)
  CppAD 20160000.1     Algorithmic Differentiation of C++ algorithms developed by B. Bell (www.coin-or.org/CppAD)
  ZLIB 1.2.5           General purpose compression library by J. Gailly and M. Adler (zlib.net)
  GMP 6.1.2            GNU Multiple Precision Arithmetic Library developed by T. Granlund (gmplib.org)

user parameter file <scip.set> not found - using default parameters

read problem <../../Split_data/output/parkin/0/3_sample_parkin.logreg>
============

File name	:	../../Split_data/output/parkin/0/3_sample_parkin.logreg
Problem name 	:	3_sample_parkin
Number of data	:	156
Number of var	:	22
The given data has linear independence

[dim=1] time: 0.003186
[dim=2] time: 0.005856
[dim=3] time: 0.008417
[dim=4] time: 0.010594
[dim=5] time: 0.012734
[dim=6] time: 0.014875
[dim=7] Time of forward = 0.016975sec.
AIC: 109.711
k: 6

[dim=22] time: 0.030807
[dim=21] time: 0.078915
[dim=20] time: 0.083504
[dim=19] time: 0.092564
[dim=18] time: 0.09796
[dim=17] time: 0.103543
[dim=16] time: 0.107755
[dim=15] time: 0.12392
[dim=14] time: 0.126781
[dim=13] time: 0.131357
[dim=12] time: 0.133442
[dim=11] time: 0.135364
[dim=10] time: 0.136792
[dim=9] time: 0.138518
[dim=8] Time of backward = 0.139573sec.
AIC: 105.002
k: 9
